certificates/rado_a5_c278_N55.cnf
c Rad2 upper bound instance: x1 + 5*x2 - x3 = 278, interval [1,55]
p cnf 55 594
1 4 55 0
-1 -4 -55 0
2 5 55 0
-2 -5 -55 0
3 6 55 0
-3 -6 -55 0
4 7 55 0
-4 -7 -55 0
5 8 55 0
-5 -8 -55 0
1 9 54 0
-1 -9 -54 0
6 9 55 0
-6 -9 -55 0
2 10 54 0
-2 -10 -54 0
7 10 55 0
-7 -10 -55 0
3 11 54 0
-3 -11 -54 0
8 11 55 0
-8 -11 -55 0
4 12 54 0
-4 -12 -54 0
9 12 55 0
-9 -12 -55 0
5 13 54 0
-5 -13 -54 0
10 13 55 0
-10 -13 -55 0
1 14 53 0
-1 -14 -53 0
6 14 54 0
-6 -14 -54 0
11 14 55 0
-11 -14 -55 0
2 15 53 0
-2 -15 -53 0
7 15 54 0
-7 -15 -54 0
12 15 55 0
-12 -15 -55 0
3 16 53 0
-3 -16 -53 0
8 16 54 0
-8 -16 -54 0
13 16 55 0
-13 -16 -55 0
4 17 53 0
-4 -17 -53 0
9 17 54 0
-9 -17 -54 0
14 17 55 0
-14 -17 -55 0
5 18 53 0
-5 -18 -53 0
10 18 54 0
-10 -18 -54 0
15 18 55 0
-15 -18 -55 0
1 19 52 0
-1 -19 -52 0
6 19 53 0
-6 -19 -53 0
11 19 54 0
-11 -19 -54 0
16 19 55 0
-16 -19 -55 0
2 20 52 0
-2 -20 -52 0
7 20 53 0
-7 -20 -53 0
12 20 54 0
-12 -20 -54 0
17 20 55 0
-17 -20 -55 0
3 21 52 0
-3 -21 -52 0
8 21 53 0
-8 -21 -53 0
13 21 54 0
-13 -21 -54 0
18 21 55 0
-18 -21 -55 0
4 22 52 0
-4 -22 -52 0
9 22 53 0
-9 -22 -53 0
14 22 54 0
-14 -22 -54 0
19 22 55 0
-19 -22 -55 0
5 23 52 0
-5 -23 -52 0
10 23 53 0
-10 -23 -53 0
15 23 54 0
-15 -23 -54 0
20 23 55 0
-20 -23 -55 0
1 24 51 0
-1 -24 -51 0
6 24 52 0
-6 -24 -52 0
11 24 53 0
-11 -24 -53 0
16 24 54 0
-16 -24 -54 0
21 24 55 0
-21 -24 -55 0
2 25 51 0
-2 -25 -51 0
7 25 52 0
-7 -25 -52 0
12 25 53 0
-12 -25 -53 0
17 25 54 0
-17 -25 -54 0
22 25 55 0
-22 -25 -55 0
3 26 51 0
-3 -26 -51 0
8 26 52 0
-8 -26 -52 0
13 26 53 0
-13 -26 -53 0
18 26 54 0
-18 -26 -54 0
23 26 55 0
-23 -26 -55 0
4 27 51 0
-4 -27 -51 0
9 27 52 0
-9 -27 -52 0
14 27 53 0
-14 -27 -53 0
19 27 54 0
-19 -27 -54 0
24 27 55 0
-24 -27 -55 0
5 28 51 0
-5 -28 -51 0
10 28 52 0
-10 -28 -52 0
15 28 53 0
-15 -28 -53 0
20 28 54 0
-20 -28 -54 0
25 28 55 0
-25 -28 -55 0
1 29 50 0
-1 -29 -50 0
6 29 51 0
-6 -29 -51 0
11 29 52 0
-11 -29 -52 0
16 29 53 0
-16 -29 -53 0
21 29 54 0
-21 -29 -54 0
26 29 55 0
-26 -29 -55 0
2 30 50 0
-2 -30 -50 0
7 30 51 0
-7 -30 -51 0
12 30 52 0
-12 -30 -52 0
17 30 53 0
-17 -30 -53 0
22 30 54 0
-22 -30 -54 0
27 30 55 0
-27 -30 -55 0
3 31 50 0
-3 -31 -50 0
8 31 51 0
-8 -31 -51 0
13 31 52 0
-13 -31 -52 0
18 31 53 0
-18 -31 -53 0
23 31 54 0
-23 -31 -54 0
28 31 55 0
-28 -31 -55 0
4 32 50 0
-4 -32 -50 0
9 32 51 0
-9 -32 -51 0
14 32 52 0
-14 -32 -52 0
19 32 53 0
-19 -32 -53 0
24 32 54 0
-24 -32 -54 0
29 32 55 0
-29 -32 -55 0
5 33 50 0
-5 -33 -50 0
10 33 51 0
-10 -33 -51 0
15 33 52 0
-15 -33 -52 0
20 33 53 0
-20 -33 -53 0
25 33 54 0
-25 -33 -54 0
30 33 55 0
-30 -33 -55 0
1 34 49 0
-1 -34 -49 0
6 34 50 0
-6 -34 -50 0
11 34 51 0
-11 -34 -51 0
16 34 52 0
-16 -34 -52 0
21 34 53 0
-21 -34 -53 0
26 34 54 0
-26 -34 -54 0
31 34 55 0
-31 -34 -55 0
2 35 49 0
-2 -35 -49 0
7 35 50 0
-7 -35 -50 0
12 35 51 0
-12 -35 -51 0
17 35 52 0
-17 -35 -52 0
22 35 53 0
-22 -35 -53 0
27 35 54 0
-27 -35 -54 0
32 35 55 0
-32 -35 -55 0
3 36 49 0
-3 -36 -49 0
8 36 50 0
-8 -36 -50 0
13 36 51 0
-13 -36 -51 0
18 36 52 0
-18 -36 -52 0
23 36 53 0
-23 -36 -53 0
28 36 54 0
-28 -36 -54 0
33 36 55 0
-33 -36 -55 0
4 37 49 0
-4 -37 -49 0
9 37 50 0
-9 -37 -50 0
14 37 51 0
-14 -37 -51 0
19 37 52 0
-19 -37 -52 0
24 37 53 0
-24 -37 -53 0
29 37 54 0
-29 -37 -54 0
34 37 55 0
-34 -37 -55 0
5 38 49 0
-5 -38 -49 0
10 38 50 0
-10 -38 -50 0
15 38 51 0
-15 -38 -51 0
20 38 52 0
-20 -38 -52 0
25 38 53 0
-25 -38 -53 0
30 38 54 0
-30 -38 -54 0
35 38 55 0
-35 -38 -55 0
1 39 48 0
-1 -39 -48 0
6 39 49 0
-6 -39 -49 0
11 39 50 0
-11 -39 -50 0
16 39 51 0
-16 -39 -51 0
21 39 52 0
-21 -39 -52 0
26 39 53 0
-26 -39 -53 0
31 39 54 0
-31 -39 -54 0
36 39 55 0
-36 -39 -55 0
2 40 48 0
-2 -40 -48 0
7 40 49 0
-7 -40 -49 0
12 40 50 0
-12 -40 -50 0
17 40 51 0
-17 -40 -51 0
22 40 52 0
-22 -40 -52 0
27 40 53 0
-27 -40 -53 0
32 40 54 0
-32 -40 -54 0
37 40 55 0
-37 -40 -55 0
3 41 48 0
-3 -41 -48 0
8 41 49 0
-8 -41 -49 0
13 41 50 0
-13 -41 -50 0
18 41 51 0
-18 -41 -51 0
23 41 52 0
-23 -41 -52 0
28 41 53 0
-28 -41 -53 0
33 41 54 0
-33 -41 -54 0
38 41 55 0
-38 -41 -55 0
4 42 48 0
-4 -42 -48 0
9 42 49 0
-9 -42 -49 0
14 42 50 0
-14 -42 -50 0
19 42 51 0
-19 -42 -51 0
24 42 52 0
-24 -42 -52 0
29 42 53 0
-29 -42 -53 0
34 42 54 0
-34 -42 -54 0
39 42 55 0
-39 -42 -55 0
5 43 48 0
-5 -43 -48 0
10 43 49 0
-10 -43 -49 0
15 43 50 0
-15 -43 -50 0
20 43 51 0
-20 -43 -51 0
25 43 52 0
-25 -43 -52 0
30 43 53 0
-30 -43 -53 0
35 43 54 0
-35 -43 -54 0
40 43 55 0
-40 -43 -55 0
1 44 47 0
-1 -44 -47 0
6 44 48 0
-6 -44 -48 0
11 44 49 0
-11 -44 -49 0
16 44 50 0
-16 -44 -50 0
21 44 51 0
-21 -44 -51 0
26 44 52 0
-26 -44 -52 0
31 44 53 0
-31 -44 -53 0
36 44 54 0
-36 -44 -54 0
41 44 55 0
-41 -44 -55 0
2 45 47 0
-2 -45 -47 0
7 45 48 0
-7 -45 -48 0
12 45 49 0
-12 -45 -49 0
17 45 50 0
-17 -45 -50 0
22 45 51 0
-22 -45 -51 0
27 45 52 0
-27 -45 -52 0
32 45 53 0
-32 -45 -53 0
37 45 54 0
-37 -45 -54 0
42 45 55 0
-42 -45 -55 0
3 46 47 0
-3 -46 -47 0
8 46 48 0
-8 -46 -48 0
13 46 49 0
-13 -46 -49 0
18 46 50 0
-18 -46 -50 0
23 46 51 0
-23 -46 -51 0
28 46 52 0
-28 -46 -52 0
33 46 53 0
-33 -46 -53 0
38 46 54 0
-38 -46 -54 0
43 46 55 0
-43 -46 -55 0
4 47 0
-4 -47 0
9 47 48 0
-9 -47 -48 0
14 47 49 0
-14 -47 -49 0
19 47 50 0
-19 -47 -50 0
24 47 51 0
-24 -47 -51 0
29 47 52 0
-29 -47 -52 0
34 47 53 0
-34 -47 -53 0
39 47 54 0
-39 -47 -54 0
44 47 55 0
-44 -47 -55 0
5 47 48 0
-5 -47 -48 0
10 48 0
-10 -48 0
15 48 49 0
-15 -48 -49 0
20 48 50 0
-20 -48 -50 0
25 48 51 0
-25 -48 -51 0
30 48 52 0
-30 -48 -52 0
35 48 53 0
-35 -48 -53 0
40 48 54 0
-40 -48 -54 0
45 48 55 0
-45 -48 -55 0
1 46 49 0
-1 -46 -49 0
6 47 49 0
-6 -47 -49 0
11 48 49 0
-11 -48 -49 0
16 49 0
-16 -49 0
21 49 50 0
-21 -49 -50 0
26 49 51 0
-26 -49 -51 0
31 49 52 0
-31 -49 -52 0
36 49 53 0
-36 -49 -53 0
41 49 54 0
-41 -49 -54 0
46 49 55 0
-46 -49 -55 0
2 46 50 0
-2 -46 -50 0
7 47 50 0
-7 -47 -50 0
12 48 50 0
-12 -48 -50 0
17 49 50 0
-17 -49 -50 0
22 50 0
-22 -50 0
27 50 51 0
-27 -50 -51 0
32 50 52 0
-32 -50 -52 0
37 50 53 0
-37 -50 -53 0
42 50 54 0
-42 -50 -54 0
47 50 55 0
-47 -50 -55 0
3 46 51 0
-3 -46 -51 0
8 47 51 0
-8 -47 -51 0
13 48 51 0
-13 -48 -51 0
18 49 51 0
-18 -49 -51 0
23 50 51 0
-23 -50 -51 0
28 51 0
-28 -51 0
33 51 52 0
-33 -51 -52 0
38 51 53 0
-38 -51 -53 0
43 51 54 0
-43 -51 -54 0
48 51 55 0
-48 -51 -55 0
4 46 52 0
-4 -46 -52 0
9 47 52 0
-9 -47 -52 0
14 48 52 0
-14 -48 -52 0
19 49 52 0
-19 -49 -52 0
24 50 52 0
-24 -50 -52 0
29 51 52 0
-29 -51 -52 0
34 52 0
-34 -52 0
39 52 53 0
-39 -52 -53 0
44 52 54 0
-44 -52 -54 0
49 52 55 0
-49 -52 -55 0
5 46 53 0
-5 -46 -53 0
10 47 53 0
-10 -47 -53 0
15 48 53 0
-15 -48 -53 0
20 49 53 0
-20 -49 -53 0
25 50 53 0
-25 -50 -53 0
30 51 53 0
-30 -51 -53 0
35 52 53 0
-35 -52 -53 0
40 53 0
-40 -53 0
45 53 54 0
-45 -53 -54 0
50 53 55 0
-50 -53 -55 0
1 45 54 0
-1 -45 -54 0
6 46 54 0
-6 -46 -54 0
11 47 54 0
-11 -47 -54 0
16 48 54 0
-16 -48 -54 0
21 49 54 0
-21 -49 -54 0
26 50 54 0
-26 -50 -54 0
31 51 54 0
-31 -51 -54 0
36 52 54 0
-36 -52 -54 0
41 53 54 0
-41 -53 -54 0
46 54 0
-46 -54 0
51 54 55 0
-51 -54 -55 0
2 45 55 0
-2 -45 -55 0
7 46 55 0
-7 -46 -55 0
12 47 55 0
-12 -47 -55 0
17 48 55 0
-17 -48 -55 0
22 49 55 0
-22 -49 -55 0
27 50 55 0
-27 -50 -55 0
32 51 55 0
-32 -51 -55 0
37 52 55 0
-37 -52 -55 0
42 53 55 0
-42 -53 -55 0
47 54 55 0
-47 -54 -55 0
52 55 0
-52 -55 0
