certificates/rado_a5_c278_N55.drat
-55 0
52 0
-34 0
31 0
37 0
-13 0
-49 0
-19 0
10 0
16 0
46 0
22 0
1 0
-28 0
-48 0
-4 0
-54 0
-40 0
-50 0
20 0
25 0
36 0
51 0
15 0
0
